NAME : A-n53-k7-20
TYPE : VRP-D
DIMENSION : 20
CAPACITY : 100
NODE_COORD_SECTION 
 1 24 63
 2 35 60
 3 79 46
 4 3 45
 5 42 50
 6 3 40
 7 29 96
 8 47 30
 9 54 77
 10 36 30
 11 83 86
 12 30 6
 13 55 29
 14 13 2
 15 1 19
 16 98 1
 17 75 10
 18 39 23
 19 62 91
 20 96 9
DEMAND_SECTION 
1 0 
2 2 
3 12 
4 14 
5 2 
6 17 
7 20 
8 2 
9 26 
10 7 
11 24 
12 23 
13 13 
14 25 
15 20 
16 3 
17 18 
18 23 
19 6 
20 2 
DEPOT_SECTION 
 1  
 -1  
EOF 
